c AY BV bitblaster CNF dump
c Variables: 40
c Clauses: 109
p cnf 40 109
9 0
-10 0
-1 -9 -11 0
-1 9 11 0
1 -9 11 0
1 9 -11 0
-12 1 0
-12 9 0
-1 -9 12 0
-2 -12 -13 0
-2 12 13 0
2 -12 13 0
2 12 -13 0
-14 2 0
-14 12 0
-2 -12 14 0
-3 -14 -15 0
-3 14 15 0
3 -14 15 0
3 14 -15 0
-16 3 0
-16 14 0
-3 -14 16 0
-4 -16 -17 0
-4 16 17 0
4 -16 17 0
4 16 -17 0
-18 4 0
-18 16 0
-4 -16 18 0
-5 -18 -19 0
-5 18 19 0
5 -18 19 0
5 18 -19 0
-20 5 0
-20 18 0
-5 -18 20 0
-6 -20 -21 0
-6 20 21 0
6 -20 21 0
6 20 -21 0
-22 6 0
-22 20 0
-6 -20 22 0
-7 -22 -23 0
-7 22 23 0
7 -22 23 0
7 22 -23 0
-24 7 0
-24 22 0
-7 -22 24 0
-8 -24 -25 0
-8 24 25 0
8 -24 25 0
8 24 -25 0
-1 -11 -26 0
-1 11 26 0
1 -11 26 0
1 11 -26 0
-2 -13 -27 0
-2 13 27 0
2 -13 27 0
2 13 -27 0
-3 -15 -28 0
-3 15 28 0
3 -15 28 0
3 15 -28 0
-4 -17 -29 0
-4 17 29 0
4 -17 29 0
4 17 -29 0
-5 -19 -30 0
-5 19 30 0
5 -19 30 0
5 19 -30 0
-6 -21 -31 0
-6 21 31 0
6 -21 31 0
6 21 -31 0
-7 -23 -32 0
-7 23 32 0
7 -23 32 0
7 23 -32 0
-8 -25 -33 0
-8 25 33 0
8 -25 33 0
8 25 -33 0
-34 -26 0
-34 -27 0
26 27 34 0
-35 34 0
-35 -28 0
-34 28 35 0
-36 35 0
-36 -29 0
-35 29 36 0
-37 36 0
-37 -30 0
-36 30 37 0
-38 37 0
-38 -31 0
-37 31 38 0
-39 38 0
-39 -32 0
-38 32 39 0
-40 39 0
-40 -33 0
-39 33 40 0
40 0
